NAME : P = NP
TYPE : TSP
DIMENSION : 45
EDGE_WEIGHT_TYPE : EUC_2D
NODE_COORD_SECTION
0 243 6
1 174 8
2 32 70
3 124 712
4 176 64
5 456 395
6 249 369
7 7 109
8 58 83
9 652 43
10 302 386
11 84 525
12 877 132
13 52 517
14 151 147
15 296 679
16 134 80
17 137 176
18 9 85
19 7 0
20 342 254
21 217 321
22 209 217
23 671 227
24 89 130
25 635 322
26 172 139
27 8 310
28 96 17
29 394 389
30 175 13
31 913 467
32 649 1
33 835 215
34 57 22
35 17 0
36 33 342
37 466 87
38 69 11
39 296 272
40 629 241
41 660 81
42 739 240
43 61 543
44 237 361